
Welcome to IBM(R) ILOG(R) CPLEX(R) Interactive Optimizer 22.1.1.0
  with Simplex, Mixed Integer & Barrier Optimizers
5725-A06 5725-A29 5724-Y48 5724-Y49 5724-Y54 5724-Y55 5655-Y21
Copyright IBM Corp. 1988, 2022.  All Rights Reserved.

Type 'help' for a list of available commands.
Type 'help' followed by a command name for more
information on commands.

CPLEX> Selected objective sense:  MINIMIZE
Selected objective  name:  00000000
Selected RHS        name:  RHS1
Selected bound      name:  BOUND
Problem 'ee.mps' read.
Read time = 0.02 sec. (3.17 ticks)
CPLEX> New value for time limit in seconds: 7200
CPLEX> New value for parallel optimization mode: -1
CPLEX> New value for default parallel thread count: 40
CPLEX> New value for mixed integer optimality gap tolerance: 1e-13
CPLEX> Version identifier: 22.1.1.0 | 2022-11-28 | 9160aff4d
CPXPARAM_Threads                                 40
CPXPARAM_Parallel                                -1
CPXPARAM_TimeLimit                               7200
CPXPARAM_MIP_Tolerances_MIPGap                   1e-13
Found incumbent of value 0.000000 after 0.00 sec. (0.31 ticks)
Tried aggregator 2 times.
MIP Presolve eliminated 183 rows and 2745 columns.
MIP Presolve modified 6090 coefficients.
Aggregator did 713 substitutions.
Reduced MIP has 3635 rows, 7840 columns, and 28950 nonzeros.
Reduced MIP has 7840 binaries, 0 generals, 0 SOSs, and 0 indicators.
Presolve time = 0.07 sec. (69.13 ticks)
Probing time = 0.03 sec. (5.33 ticks)
Tried aggregator 1 time.
Detecting symmetries...
Reduced MIP has 3635 rows, 7840 columns, and 28950 nonzeros.
Reduced MIP has 7840 binaries, 0 generals, 0 SOSs, and 0 indicators.
Presolve time = 0.02 sec. (22.10 ticks)
Probing time = 0.02 sec. (5.12 ticks)
Clique table members: 18786.
MIP emphasis: balance optimality and feasibility.
MIP search method: dynamic search.
Parallel mode: opportunistic, using up to 40 threads.
Root relaxation solution time = 0.17 sec. (153.39 ticks)

        Nodes                                         Cuts/
   Node  Left     Objective  IInf  Best Integer    Best Bound    ItCnt     Gap

*     0+    0                            0.0000  -1.54000e+13              --- 
*     0+    0                      -8.40000e+12  -1.54000e+13            83.33%
      0     0  -1.53900e+13    88  -8.40000e+12  -1.53900e+13     3030   83.21%
*     0+    0                      -1.32000e+13  -1.53900e+13            16.59%
*     0+    0                      -1.53900e+13  -1.53900e+13             0.00%
      0     0  -1.53900e+13   102  -1.53900e+13      Cuts: 89     3458    0.00%
*     0+    0                      -1.53900e+13  -1.53900e+13             0.00%
      0     0  -1.53900e+13   147  -1.53900e+13      Cuts: 83     3657    0.00%
*     0+    0                      -1.53900e+13  -1.53900e+13             0.00%
      0     2  -1.53900e+13   147  -1.53900e+13  -1.53900e+13     3657    0.00%
Elapsed time = 2.73 sec. (1511.29 ticks, tree = 0.02 MB, solutions = 14)
*     1+    1                      -1.53900e+13  -1.53900e+13             0.00%
*     5+   13                      -1.53900e+13  -1.53900e+13             0.00%
*     8+   11                      -1.53900e+13  -1.53900e+13             0.00%
     95    22  -1.53900e+13   166  -1.53900e+13  -1.53900e+13    10233    0.00%
    378    84        cutoff        -1.53900e+13  -1.53900e+13    43304    0.00%
    800   413        cutoff        -1.53900e+13  -1.53900e+13   132902    0.00%
   1180   216  -1.53900e+13    67  -1.53900e+13  -1.53900e+13    81826    0.00%
   1530   288  -1.53900e+13   182  -1.53900e+13  -1.53900e+13   102772    0.00%
   1829   466    infeasible        -1.53900e+13  -1.53900e+13   172289    0.00%
   2115   462  -1.53900e+13    71  -1.53900e+13  -1.53900e+13   167943    0.00%
   2447   531  -1.53900e+13   245  -1.53900e+13  -1.53900e+13   204297    0.00%
   2751   555  -1.53900e+13   167  -1.53900e+13  -1.53900e+13   219099    0.00%
   3719   818  -1.53900e+13   146  -1.53900e+13  -1.53900e+13   433822    0.00%
Elapsed time = 8.91 sec. (4617.82 ticks, tree = 8.59 MB, solutions = 15)
   4495   846  -1.53900e+13    96  -1.53900e+13  -1.53900e+13   496553    0.00%
   5364   915  -1.53900e+13   152  -1.53900e+13  -1.53900e+13   602306    0.00%
   6198  1267    infeasible        -1.53900e+13  -1.53900e+13  1041395    0.00%
   7165  1075  -1.53900e+13   125  -1.53900e+13  -1.53900e+13   896014    0.00%
   8393  1237        cutoff        -1.53900e+13  -1.53900e+13  1016409    0.00%
   9565  1315  -1.53900e+13   120  -1.53900e+13  -1.53900e+13  1071472    0.00%
  10412  1929        cutoff        -1.53900e+13  -1.53900e+13  1615256    0.00%
  11167  1748        cutoff        -1.53900e+13  -1.53900e+13  1384514    0.00%
  12081  1973    infeasible        -1.53900e+13  -1.53900e+13  1671617    0.00%
  12734  1926  -1.53900e+13   144  -1.53900e+13  -1.53900e+13  1634650    0.00%
Elapsed time = 21.75 sec. (14161.59 ticks, tree = 22.34 MB, solutions = 15)
  13130  2329        cutoff        -1.53900e+13  -1.53900e+13  1891819    0.00%
  13224  2349  -1.53900e+13   201  -1.53900e+13  -1.53900e+13  1935742    0.00%

Performing restart 1

Repeating presolve.
Tried aggregator 2 times.
MIP Presolve eliminated 29 rows and 27 columns.
MIP Presolve modified 1875 coefficients.
Aggregator did 6 substitutions.
Reduced MIP has 3524 rows, 7807 columns, and 28240 nonzeros.
Reduced MIP has 7807 binaries, 0 generals, 0 SOSs, and 0 indicators.
Presolve time = 0.05 sec. (40.99 ticks)
Tried aggregator 2 times.
MIP Presolve eliminated 14 rows and 42 columns.
MIP Presolve modified 24 coefficients.
Aggregator did 16 substitutions.
Reduced MIP has 3494 rows, 7743 columns, and 28020 nonzeros.
Reduced MIP has 7743 binaries, 0 generals, 0 SOSs, and 0 indicators.
Presolve time = 0.05 sec. (52.63 ticks)
Represolve time = 0.23 sec. (152.16 ticks)
  13225     0  -1.53900e+13   269  -1.53900e+13      Cuts: 56  2282937    0.00%
  13225     0  -1.53900e+13   278  -1.53900e+13      Cuts: 56  2283335    0.00%
  13225     0  -1.53900e+13   344  -1.53900e+13      Cuts: 55  2283769    0.00%
  13225     0  -1.53900e+13   247  -1.53900e+13      Cuts: 56  2284044    0.00%
  13225     0  -1.53900e+13   345  -1.53900e+13      Cuts: 57  2284610    0.00%
  13225     6    infeasible        -1.53900e+13  -1.53900e+13  2298448    0.00%
  14063    94  -1.53900e+13   154  -1.53900e+13  -1.53900e+13  2350284    0.00%
  15375    86        cutoff        -1.53900e+13  -1.53900e+13  2351830    0.00%
  17223   114  -1.53900e+13   137  -1.53900e+13  -1.53900e+13  2359606    0.00%
  18711   953  -1.53900e+13   251  -1.53900e+13  -1.53900e+13  2818189    0.00%
  19765   672        cutoff        -1.53900e+13  -1.53900e+13  2676800    0.00%
  20654  1845  -1.53900e+13    59  -1.53900e+13  -1.53900e+13  3381935    0.00%
  21566  2927        cutoff        -1.53900e+13  -1.53900e+13  4559753    0.00%
Elapsed time = 45.64 sec. (27437.61 ticks, tree = 28.85 MB, solutions = 15)
  22696  2952        cutoff        -1.53900e+13  -1.53900e+13  4620322    0.00%
  24240  2660  -1.53900e+13   138  -1.53900e+13  -1.53900e+13  4772352    0.00%
  26533  2382        cutoff        -1.53900e+13  -1.53900e+13  4263190    0.00%
  28962  2935  -1.53900e+13   131  -1.53900e+13  -1.53900e+13  4688315    0.00%
  31763  2935  -1.53900e+13    42  -1.53900e+13  -1.53900e+13  4685959    0.00%
  34332  2739        cutoff        -1.53900e+13  -1.53900e+13  4752493    0.00%
  37100  2541  -1.53900e+13    20  -1.53900e+13  -1.53900e+13  4882159    0.00%
  39260   391        cutoff        -1.53900e+13  -1.53900e+13  5013100    0.00%
  39825  2617        cutoff        -1.53900e+13  -1.53900e+13  4827966    0.00%
  39958  1585  -1.53900e+13    85  -1.53900e+13  -1.53900e+13  4980963    0.00%
Elapsed time = 47.98 sec. (36990.45 ticks, tree = 11.95 MB, solutions = 15)

GUB cover cuts applied:  10
Clique cuts applied:  15
Cover cuts applied:  445
Flow cuts applied:  1
Mixed integer rounding cuts applied:  10
Zero-half cuts applied:  35
Lift and project cuts applied:  3
Gomory fractional cuts applied:  34

Root node processing (before b&c):
  Real time             =    1.68 sec. (1495.12 ticks)
Parallel b&c, 40 threads:
  Real time             =   46.36 sec. (35738.60 ticks)
  Sync time (average)   =    4.22 sec.
  Wait time (average)   =    0.13 sec.
                          ------------
Total (root+branch&cut) =   48.04 sec. (37233.72 ticks)

Solution pool: 15 solutions saved.

MIP - Integer optimal solution:  Objective = -1.5389998788e+13
Solution time =   48.19 sec.  Iterations = 5016208  Nodes = 40009
Deterministic time = 37233.75 ticks  (772.67 ticks/sec)

CPLEX> Solution 'p16' written to file 'ee.sol'.
CPLEX> 